n_res = 4;
rcap = [20, 20, 88, 97];
rtype = [1, 1, 2, 2];
n_tasks = 30;
modes = [ {1, 2, 3}, {4, 5, 6}, {7, 8, 9}, {10, 11, 12}, {13, 14, 15}, {16, 17, 18}, {19, 20, 21}, {22, 23, 24}, {25, 26, 27}, {28, 29, 30}, {31, 32, 33}, {34, 35, 36}, {37, 38, 39}, {40, 41, 42}, {43, 44, 45}, {46, 47, 48}, {49, 50, 51}, {52, 53, 54}, {55, 56, 57}, {58, 59, 60}, {61, 62, 63}, {64, 65, 66}, {67, 68, 69}, {70, 71, 72}, {73, 74, 75}, {76, 77, 78}, {79, 80, 81}, {82, 83, 84}, {85, 86, 87}, {88, 89, 90} ];
succ = [ {11, 16, 28}, {4, 8, 11}, {5, 6, 9}, {16, 17, 24}, {10, 13, 20}, {7, 25, 26}, {27}, {12, 15, 18}, {15, 22, 30}, {14, 23, 24}, {12}, {19}, {18, 23}, {16}, {25}, {21}, {18, 29}, {19, 22}, {21}, {23, 24}, {30}, {28}, {25, 26, 30}, {27, 28}, {27}, {29}, {29}, {}, {}, {} ];
n_opt = 90;
dur = [6, 6, 7, 5, 6, 9, 2, 2, 4, 4, 5, 5, 1, 2, 6, 1, 9, 10, 3, 6, 9, 4, 4, 9, 2, 4, 4, 1, 2, 9, 6, 7, 9, 1, 3, 6, 9, 9, 10, 5, 9, 10, 4, 10, 10, 1, 2, 8, 2, 5, 6, 2, 3, 8, 4, 8, 9, 4, 6, 9, 1, 4, 7, 2, 9, 10, 4, 10, 10, 9, 10, 10, 7, 8, 8, 3, 4, 4, 2, 8, 8, 3, 9, 10, 2, 2, 7, 2, 6, 7];
rreq = [|  9,  9,  9,  4,  4,  3,  8,  8,  8,  8,  8,  8,  5,  5,  4, 10,  7,  5,  9,  6,  5,  5,  5,  5,  6,  4,  3,  9,  8,  7, 10,  8,  7,  4,  3,  1,  9,  9,  8,  2,  2,  1,  6,  5,  4,  3,  3,  3, 10,  9,  9, 10,  8,  6,  5,  5,  5,  6,  6,  6,  9,  9,  8,  8,  5,  5,  6,  6,  4,  8,  3,  6,  4,  4,  3,  4,  4,  4,  7,  7,  5,  9,  7,  6,  5,  5,  5,  9,  7,  5
        |  4,  4,  2,  4,  4,  3,  7,  7,  7,  8,  5,  2,  2,  2,  1,  7,  7,  7, 10,  9,  9,  7,  8,  7,  8,  8,  8,  3,  2,  1,  4,  4,  3,  8,  7,  5,  5,  6,  2, 10, 10,  9,  8,  5,  4,  9,  8,  6, 10,  9,  8,  9,  8,  6,  7,  6,  4,  8,  4,  3,  7,  5,  2,  4,  3,  2,  3,  3,  3,  9,  8,  9,  5,  4,  5,  8,  8,  6,  6,  2,  3,  4,  4,  3,  1,  1,  1,  5,  4,  2
        |  9,  0,  8,  2,  0,  0,  3,  0,  0,  0,  8,  0,  0,  1,  0,  3,  0,  0,  0,  7,  0,  3,  2,  0,  0,  0,  9,  0,  0,  0,  0,  5,  0,  9,  0,  0,  0,  0,  4,  6,  0,  5,  0,  8,  0,  5,  4,  3,  5,  0,  2,  0,  0,  7,  9,  0,  6, 10,  0,  9, 10,  9,  7,  3,  2,  0,  0,  1,  0,  0,  5,  3,  5,  1,  3,  9,  0,  7,  5,  0,  3,  3,  0,  0, 10,  0,  8,  0,  0,  0
        |  0,  6,  0,  0,  9,  6,  0,  9,  8,  9,  0,  6,  6,  0,  6,  0,  5,  4,  7,  0,  6,  0,  0,  2,  7,  4,  0, 10,  9,  9, 10,  0,  9,  0,  9,  8,  9,  8,  0,  0,  7,  0,  7,  0,  6,  0,  0,  0,  0,  4,  0,  9,  7,  0,  0, 10,  0,  0,  6,  0,  0,  0,  0,  0,  0,  8,  2,  0,  1,  2,  0,  0,  0,  0,  0,  0,  8,  0,  0,  3,  0,  0,  5,  4,  0,  5,  0,  7,  6,  4 |];
